NAME 
ROWS
 N  OBJ
 L  R0      
 E  R1      
 E  R2      
 E  R3      
 E  R4      
 E  R5      
 E  R6      
 E  R7      
 E  R8      
 E  R9      
 E  R10     
 E  R11     
 E  R12     
 E  R13     
 E  R14     
 E  R15     
 E  R16     
 E  R17     
 E  R18     
 E  R19     
 E  R20     
 E  R21     
 E  R22     
 E  R23     
 E  R24     
 E  R25     
COLUMNS
    MARKER    'MARKER'                 'INTORG'
    I0(11)    OBJ       -117
    I0(11)    R0        99
    I0(11)    R1        4
    I0(11)    R2        1
    I0(11)    R3        12
    I0(11)    R4        -1
    I0(11)    R5        8
    I0(11)    R6        7
    I0(11)    R8        9
    I0(11)    R9        10
    I0(11)    R10       18
    I0(11)    R25       1
    I1(11)    OBJ       -15
    I1(11)    R0        125
    I1(11)    R1        13
    I1(11)    R2        5
    I1(11)    R3        6
    I1(11)    R5        4
    I1(11)    R6        12
    I1(11)    R7        8
    I1(11)    R8        12
    I1(11)    R9        9
    I1(11)    R10       19
    I1(11)    R25       1
    I2(11)    OBJ       31
    I2(11)    R0        -45
    I2(11)    R1        13
    I2(11)    R3        12
    I2(11)    R4        15
    I2(11)    R5        5
    I2(11)    R6        13
    I2(11)    R7        19
    I2(11)    R8        12
    I2(11)    R9        8
    I2(11)    R10       19
    I2(11)    R25       1
    I3(12)    OBJ       -200
    I3(12)    R0        -191
    I3(12)    R1        11
    I3(12)    R2        -1
    I3(12)    R3        17
    I3(12)    R4        4
    I3(12)    R5        19
    I3(12)    R6        15
    I3(12)    R7        2
    I3(12)    R8        8
    I3(12)    R9        4
    I3(12)    R10       13
    I3(12)    R25       1
    I4(9)     OBJ       -22
    I4(9)     R0        152
    I4(9)     R1        10
    I4(9)     R2        14
    I4(9)     R4        6
    I4(9)     R5        12
    I4(9)     R7        11
    I4(9)     R9        13
    I4(9)     R10       16
    I4(9)     R25       1
    I5(10)    OBJ       -179
    I5(10)    R0        179
    I5(10)    R1        18
    I5(10)    R2        1
    I5(10)    R3        5
    I5(10)    R4        14
    I5(10)    R5        2
    I5(10)    R6        6
    I5(10)    R7        13
    I5(10)    R9        7
    I5(10)    R25       1
    I6(10)    OBJ       133
    I6(10)    R0        77
    I6(10)    R1        10
    I6(10)    R2        3
    I6(10)    R3        19
    I6(10)    R5        17
    I6(10)    R6        8
    I6(10)    R7        8
    I6(10)    R8        1
    I6(10)    R10       7
    I6(10)    R25       1
    I7(8)     OBJ       96
    I7(8)     R0        -110
    I7(8)     R2        6
    I7(8)     R3        19
    I7(8)     R4        1
    I7(8)     R8        16
    I7(8)     R9        12
    I7(8)     R10       -1
    I7(8)     R25       1
    I8(9)     OBJ       18
    I8(9)     R0        18
    I8(9)     R2        7
    I8(9)     R3        18
    I8(9)     R4        8
    I8(9)     R5        2
    I8(9)     R6        1
    I8(9)     R9        15
    I8(9)     R10       5
    I8(9)     R25       1
    I9(7)     OBJ       -138
    I9(7)     R0        -53
    I9(7)     R4        6
    I9(7)     R6        11
    I9(7)     R7        6
    I9(7)     R8        19
    I9(7)     R9        9
    I9(7)     R25       1
    MARKER    'MARKER'                 'INTEND'
    C10(22)   OBJ       9
    C10(22)   R0        -1
    C10(22)   R1        13
    C10(22)   R2        15
    C10(22)   R3        -1
    C10(22)   R5        10
    C10(22)   R6        17
    C10(22)   R7        8
    C10(22)   R8        12
    C10(22)   R9        17
    C10(22)   R10       11
    C10(22)   R11       -1
    C10(22)   R12       16
    C10(22)   R13       6
    C10(22)   R14       -1
    C10(22)   R16       7
    C10(22)   R17       10
    C10(22)   R19       5
    C10(22)   R20       1
    C10(22)   R21       14
    C10(22)   R22       13
    C10(22)   R23       11
    C10(22)   R24       8
    C11(18)   OBJ       8
    C11(18)   R0        -2
    C11(18)   R2        6
    C11(18)   R3        17
    C11(18)   R4        17
    C11(18)   R5        17
    C11(18)   R6        9
    C11(18)   R7        1
    C11(18)   R8        8
    C11(18)   R9        17
    C11(18)   R10       10
    C11(18)   R11       1
    C11(18)   R12       2
    C11(18)   R13       4
    C11(18)   R18       17
    C11(18)   R20       3
    C11(18)   R21       6
    C11(18)   R23       18
    C11(18)   R24       13
    C12(21)   OBJ       -5
    C12(21)   R0        9
    C12(21)   R1        15
    C12(21)   R2        10
    C12(21)   R3        -1
    C12(21)   R4        12
    C12(21)   R5        13
    C12(21)   R6        9
    C12(21)   R7        9
    C12(21)   R8        6
    C12(21)   R9        17
    C12(21)   R10       -1
    C12(21)   R11       6
    C12(21)   R12       6
    C12(21)   R14       19
    C12(21)   R15       8
    C12(21)   R16       14
    C12(21)   R17       3
    C12(21)   R18       6
    C12(21)   R20       9
    C12(21)   R21       4
    C12(21)   R24       16
    C13(22)   OBJ       -3
    C13(22)   R0        -2
    C13(22)   R1        17
    C13(22)   R2        11
    C13(22)   R3        18
    C13(22)   R4        14
    C13(22)   R5        5
    C13(22)   R6        11
    C13(22)   R7        13
    C13(22)   R8        8
    C13(22)   R9        12
    C13(22)   R10       7
    C13(22)   R11       8
    C13(22)   R12       10
    C13(22)   R13       5
    C13(22)   R14       5
    C13(22)   R15       9
    C13(22)   R16       12
    C13(22)   R18       5
    C13(22)   R19       11
    C13(22)   R22       11
    C13(22)   R23       -1
    C13(22)   R24       13
    C14(18)   OBJ       -6
    C14(18)   R0        -5
    C14(18)   R1        13
    C14(18)   R3        10
    C14(18)   R4        6
    C14(18)   R6        17
    C14(18)   R7        7
    C14(18)   R8        2
    C14(18)   R9        1
    C14(18)   R10       2
    C14(18)   R11       4
    C14(18)   R12       14
    C14(18)   R14       -1
    C14(18)   R17       5
    C14(18)   R18       3
    C14(18)   R21       10
    C14(18)   R22       14
    C14(18)   R23       13
    C14(18)   R24       14
    C15(21)   OBJ       4
    C15(21)   R0        3
    C15(21)   R1        14
    C15(21)   R2        6
    C15(21)   R3        6
    C15(21)   R4        17
    C15(21)   R7        6
    C15(21)   R8        4
    C15(21)   R9        19
    C15(21)   R10       9
    C15(21)   R12       7
    C15(21)   R13       9
    C15(21)   R14       14
    C15(21)   R15       7
    C15(21)   R16       18
    C15(21)   R17       10
    C15(21)   R18       5
    C15(21)   R19       4
    C15(21)   R20       8
    C15(21)   R21       13
    C15(21)   R22       10
    C15(21)   R23       9
    C16(21)   OBJ       -6
    C16(21)   R0        -8
    C16(21)   R1        -1
    C16(21)   R2        9
    C16(21)   R3        11
    C16(21)   R5        14
    C16(21)   R6        2
    C16(21)   R7        -1
    C16(21)   R9        9
    C16(21)   R10       4
    C16(21)   R11       17
    C16(21)   R12       3
    C16(21)   R13       3
    C16(21)   R14       8
    C16(21)   R15       11
    C16(21)   R16       11
    C16(21)   R18       18
    C16(21)   R19       3
    C16(21)   R20       1
    C16(21)   R21       2
    C16(21)   R22       7
    C16(21)   R23       5
    C17(22)   OBJ       -5
    C17(22)   R0        -10
    C17(22)   R1        4
    C17(22)   R2        12
    C17(22)   R3        8
    C17(22)   R4        3
    C17(22)   R6        2
    C17(22)   R7        8
    C17(22)   R8        15
    C17(22)   R10       9
    C17(22)   R11       12
    C17(22)   R12       14
    C17(22)   R13       16
    C17(22)   R14       6
    C17(22)   R16       9
    C17(22)   R17       2
    C17(22)   R18       2
    C17(22)   R19       12
    C17(22)   R20       12
    C17(22)   R21       16
    C17(22)   R22       17
    C17(22)   R23       7
    C17(22)   R24       3
    C18(21)   OBJ       -3
    C18(21)   R0        4
    C18(21)   R1        10
    C18(21)   R2        13
    C18(21)   R3        5
    C18(21)   R4        6
    C18(21)   R5        9
    C18(21)   R7        8
    C18(21)   R8        13
    C18(21)   R9        -1
    C18(21)   R10       17
    C18(21)   R11       5
    C18(21)   R12       18
    C18(21)   R13       7
    C18(21)   R14       17
    C18(21)   R15       6
    C18(21)   R18       5
    C18(21)   R19       12
    C18(21)   R20       11
    C18(21)   R21       6
    C18(21)   R22       4
    C18(21)   R23       8
    C19(19)   OBJ       3
    C19(19)   R0        -5
    C19(19)   R2        12
    C19(19)   R3        3
    C19(19)   R4        7
    C19(19)   R5        7
    C19(19)   R6        12
    C19(19)   R7        17
    C19(19)   R9        17
    C19(19)   R10       5
    C19(19)   R11       13
    C19(19)   R12       9
    C19(19)   R13       13
    C19(19)   R15       18
    C19(19)   R17       17
    C19(19)   R19       11
    C19(19)   R20       7
    C19(19)   R21       17
    C19(19)   R22       7
    C19(19)   R23       18
    C20(22)   OBJ       7
    C20(22)   R0        -2
    C20(22)   R1        2
    C20(22)   R2        8
    C20(22)   R3        13
    C20(22)   R4        9
    C20(22)   R5        6
    C20(22)   R6        2
    C20(22)   R8        4
    C20(22)   R9        6
    C20(22)   R10       9
    C20(22)   R11       18
    C20(22)   R12       16
    C20(22)   R14       9
    C20(22)   R15       5
    C20(22)   R16       3
    C20(22)   R17       7
    C20(22)   R19       2
    C20(22)   R20       7
    C20(22)   R21       11
    C20(22)   R22       6
    C20(22)   R23       11
    C20(22)   R24       1
    C21(19)   OBJ       3
    C21(19)   R0        -1
    C21(19)   R1        18
    C21(19)   R3        15
    C21(19)   R4        -1
    C21(19)   R5        18
    C21(19)   R6        15
    C21(19)   R8        14
    C21(19)   R9        19
    C21(19)   R11       11
    C21(19)   R12       16
    C21(19)   R14       13
    C21(19)   R15       1
    C21(19)   R17       4
    C21(19)   R18       2
    C21(19)   R20       13
    C21(19)   R21       11
    C21(19)   R22       5
    C21(19)   R23       8
    C21(19)   R24       1
    C22(19)   R0        4
    C22(19)   R1        8
    C22(19)   R2        14
    C22(19)   R7        12
    C22(19)   R8        18
    C22(19)   R9        5
    C22(19)   R10       11
    C22(19)   R11       7
    C22(19)   R14       11
    C22(19)   R15       2
    C22(19)   R16       18
    C22(19)   R17       14
    C22(19)   R18       17
    C22(19)   R19       18
    C22(19)   R20       12
    C22(19)   R21       5
    C22(19)   R22       15
    C22(19)   R23       14
    C22(19)   R24       -1
    C23(15)   OBJ       -6
    C23(15)   R0        -3
    C23(15)   R1        1
    C23(15)   R2        14
    C23(15)   R3        8
    C23(15)   R5        1
    C23(15)   R6        11
    C23(15)   R7        19
    C23(15)   R11       5
    C23(15)   R14       15
    C23(15)   R15       4
    C23(15)   R16       2
    C23(15)   R17       6
    C23(15)   R19       16
    C23(15)   R21       10
    C23(15)   R23       14
    C24(21)   OBJ       -7
    C24(21)   R1        13
    C24(21)   R2        1
    C24(21)   R3        10
    C24(21)   R4        3
    C24(21)   R6        12
    C24(21)   R7        5
    C24(21)   R8        19
    C24(21)   R10       17
    C24(21)   R11       13
    C24(21)   R12       15
    C24(21)   R13       12
    C24(21)   R15       4
    C24(21)   R16       -1
    C24(21)   R17       -1
    C24(21)   R18       11
    C24(21)   R19       10
    C24(21)   R20       12
    C24(21)   R21       18
    C24(21)   R22       11
    C24(21)   R23       1
    C24(21)   R24       19
    C25(1)    R1        1
    C26(1)    R2        1
    C27(1)    R3        1
    C28(1)    R4        1
    C29(1)    R5        1
    C30(1)    R6        1
    C31(1)    R7        1
    C32(1)    R8        1
    C33(1)    R9        1
    C34(1)    R10       1
    C35(1)    R11       1
    C36(1)    R12       1
    C37(1)    R13       1
    C38(1)    R14       1
    C39(1)    R15       1
    C40(1)    R16       1
    C41(1)    R17       1
    C42(1)    R18       1
    C43(1)    R19       1
    C44(1)    R20       1
    C45(1)    R21       1
    C46(1)    R22       1
    C47(1)    R23       1
    C48(1)    R24       1
    C49(1)    R25       1
RHS
    RHS1      R0        -9.8266591825386143e+01
    RHS1      R1        79
    RHS1      R2        97
    RHS1      R3        85
    RHS1      R4        81
    RHS1      R5        76
    RHS1      R6        94
    RHS1      R7        66
    RHS1      R8        75
    RHS1      R9        93
    RHS1      R10       78
    RHS1      R11       97
    RHS1      R12       79
    RHS1      R13       88
    RHS1      R14       83
    RHS1      R15       84
    RHS1      R16       57
    RHS1      R17       52
    RHS1      R18       63
    RHS1      R19       93
    RHS1      R20       61
    RHS1      R21       94
    RHS1      R22       87
    RHS1      R23       95
    RHS1      R24       54
    RHS1      R25       3
BOUNDS
 UP BND1      I0(11)    1
 UP BND1      I1(11)    1
 UP BND1      I2(11)    1
 UP BND1      I3(12)    1
 UP BND1      I4(9)     1
 UP BND1      I5(10)    1
 UP BND1      I6(10)    1
 UP BND1      I7(8)     1
 UP BND1      I8(9)     1
 UP BND1      I9(7)     1
ENDATA
